100 8
598 177
544 752
278 208
276 747
718 193
159 789
427 683
334 534
318 744
508 802
570 828
186 841
482 680
452 350
415 575
344 184
459 787
909 413
157 92
354 689
402 712
493 776
785 573
335 666
814 333
468 591
497 75
512 698
464 248
331 666
333 821
438 650
670 329
480 758
431 237
524 250
685 393
347 728
742 487
150 50
144 896
597 492
466 721
751 418
400 675
697 197
758 536
519 112
393 632
452 805
446 410
659 435
477 673
277 789
581 371
607 337
415 839
678 332
386 584
261 622
362 831
680 551
788 284
366 276
802 413
542 282
438 902
470 797
622 394
731 354
453 622
408 620
202 719
660 797
545 379
41 86
138 155
787 478
498 828
463 231
498 806
737 484
759 347
529 721
124 874
409 543
327 875
486 804
282 946
608 321
458 128
415 887
329 615
516 226
214 729
363 297
463 815
239 126
279 716
367 913
